p cnf 175 498
c inputs: 1 2 3 4 5 6 7 8 9
c variables for gates: 10 ... 166
c outputs: 167 168 169 170 171 172 173 174 175
c random input: 1 -2 3 -4 5 -6 7 8 9
10 -1 -5 0
-10 1 0
-10 5 0
11 -1 -6 0
-11 1 0
-11 6 0
12 -1 -7 0
-12 1 0
-12 7 0
13 -1 -8 0
-13 1 0
-13 8 0
14 -1 -9 0
-14 1 0
-14 9 0
15 -2 -5 0
-15 2 0
-15 5 0
16 -2 -6 0
-16 2 0
-16 6 0
17 -2 -7 0
-17 2 0
-17 7 0
18 -2 -8 0
-18 2 0
-18 8 0
19 -2 -9 0
-19 2 0
-19 9 0
20 -3 -5 0
-20 3 0
-20 5 0
21 -3 -6 0
-21 3 0
-21 6 0
22 -3 -7 0
-22 3 0
-22 7 0
23 -3 -8 0
-23 3 0
-23 8 0
24 -3 -9 0
-24 3 0
-24 9 0
25 -4 -5 0
-25 4 0
-25 5 0
26 -4 -6 0
-26 4 0
-26 6 0
27 -4 -7 0
-27 4 0
-27 7 0
28 -4 -8 0
-28 4 0
-28 8 0
29 -4 -9 0
-29 4 0
-29 9 0
30 -25 -21 0
-30 25 0
-30 21 0
31 -25 21 0
-31 25 0
-31 -21 0
32 -21 25 0
-32 21 0
-32 -25 0
33 32 31 0
-33 -32 0
-33 -31 0
34 -26 -30 0
-34 26 0
-34 30 0
35 -22 -30 0
-35 22 0
-35 30 0
36 -26 -22 0
-36 26 0
-36 22 0
37 36 35 0
-37 -36 0
-37 -35 0
38 34 -37 0
-38 -34 0
-38 37 0
39 -26 22 0
-39 26 0
-39 -22 0
40 -22 26 0
-40 22 0
-40 -26 0
41 40 39 0
-41 -40 0
-41 -39 0
42 -30 -41 0
-42 30 0
-42 41 0
43 30 41 0
-43 -30 0
-43 -41 0
44 43 42 0
-44 -43 0
-44 -42 0
45 -27 38 0
-45 27 0
-45 -38 0
46 27 38 0
-46 -27 0
-46 -38 0
47 -27 -38 0
-47 27 0
-47 38 0
48 46 47 0
-48 -46 0
-48 -47 0
49 -16 -20 0
-49 16 0
-49 20 0
50 -20 16 0
-50 20 0
-50 -16 0
51 -16 20 0
-51 16 0
-51 -20 0
52 50 51 0
-52 -50 0
-52 -51 0
53 -49 33 0
-53 49 0
-53 -33 0
54 -17 -49 0
-54 17 0
-54 49 0
55 -17 33 0
-55 17 0
-55 -33 0
56 54 55 0
-56 -54 0
-56 -55 0
57 53 -56 0
-57 -53 0
-57 56 0
58 17 33 0
-58 -17 0
-58 -33 0
59 -17 -33 0
-59 17 0
-59 33 0
60 59 58 0
-60 -59 0
-60 -58 0
61 -49 -60 0
-61 49 0
-61 60 0
62 49 60 0
-62 -49 0
-62 -60 0
63 61 62 0
-63 -61 0
-63 -62 0
64 44 57 0
-64 -44 0
-64 -57 0
65 -18 57 0
-65 18 0
-65 -57 0
66 -18 44 0
-66 18 0
-66 -44 0
67 66 65 0
-67 -66 0
-67 -65 0
68 64 -67 0
-68 -64 0
-68 67 0
69 18 44 0
-69 -18 0
-69 -44 0
70 -18 -44 0
-70 18 0
-70 44 0
71 69 70 0
-71 -69 0
-71 -70 0
72 57 -71 0
-72 -57 0
-72 71 0
73 -57 71 0
-73 57 0
-73 -71 0
74 72 73 0
-74 -72 0
-74 -73 0
75 68 48 0
-75 -68 0
-75 -48 0
76 -23 68 0
-76 23 0
-76 -68 0
77 -23 48 0
-77 23 0
-77 -48 0
78 76 77 0
-78 -76 0
-78 -77 0
79 -78 75 0
-79 78 0
-79 -75 0
80 23 48 0
-80 -23 0
-80 -48 0
81 -23 -48 0
-81 23 0
-81 48 0
82 80 81 0
-82 -80 0
-82 -81 0
83 -82 68 0
-83 82 0
-83 -68 0
84 82 -68 0
-84 -82 0
-84 68 0
85 83 84 0
-85 -83 0
-85 -84 0
86 -45 79 0
-86 45 0
-86 -79 0
87 -28 79 0
-87 28 0
-87 -79 0
88 -28 -45 0
-88 28 0
-88 45 0
89 88 87 0
-89 -88 0
-89 -87 0
90 86 -89 0
-90 -86 0
-90 89 0
91 28 -45 0
-91 -28 0
-91 45 0
92 -28 45 0
-92 28 0
-92 -45 0
93 91 92 0
-93 -91 0
-93 -92 0
94 -93 79 0
-94 93 0
-94 -79 0
95 93 -79 0
-95 -93 0
-95 79 0
96 94 95 0
-96 -94 0
-96 -95 0
97 -11 15 0
-97 11 0
-97 -15 0
98 -15 11 0
-98 15 0
-98 -11 0
99 97 98 0
-99 -97 0
-99 -98 0
100 -15 -11 0
-100 15 0
-100 11 0
101 -12 -52 0
-101 12 0
-101 52 0
102 12 52 0
-102 -12 0
-102 -52 0
103 101 102 0
-103 -101 0
-103 -102 0
104 -100 -103 0
-104 100 0
-104 103 0
105 100 103 0
-105 -100 0
-105 -103 0
106 104 105 0
-106 -104 0
-106 -105 0
107 -12 -100 0
-107 12 0
-107 100 0
108 -100 52 0
-108 100 0
-108 -52 0
109 -12 52 0
-109 12 0
-109 -52 0
110 109 108 0
-110 -109 0
-110 -108 0
111 107 -110 0
-111 -107 0
-111 110 0
112 -13 -63 0
-112 13 0
-112 63 0
113 13 63 0
-113 -13 0
-113 -63 0
114 113 112 0
-114 -113 0
-114 -112 0
115 111 -114 0
-115 -111 0
-115 114 0
116 -111 114 0
-116 111 0
-116 -114 0
117 116 115 0
-117 -116 0
-117 -115 0
118 -13 111 0
-118 13 0
-118 -111 0
119 111 63 0
-119 -111 0
-119 -63 0
120 -13 63 0
-120 13 0
-120 -63 0
121 119 120 0
-121 -119 0
-121 -120 0
122 118 -121 0
-122 -118 0
-122 121 0
123 -14 -74 0
-123 14 0
-123 74 0
124 14 74 0
-124 -14 0
-124 -74 0
125 123 124 0
-125 -123 0
-125 -124 0
126 122 -125 0
-126 -122 0
-126 125 0
127 -122 125 0
-127 122 0
-127 -125 0
128 127 126 0
-128 -127 0
-128 -126 0
129 -14 122 0
-129 14 0
-129 -122 0
130 122 74 0
-130 -122 0
-130 -74 0
131 -14 74 0
-131 14 0
-131 -74 0
132 131 130 0
-132 -131 0
-132 -130 0
133 -132 129 0
-133 132 0
-133 -129 0
134 -19 -85 0
-134 19 0
-134 85 0
135 19 85 0
-135 -19 0
-135 -85 0
136 134 135 0
-136 -134 0
-136 -135 0
137 133 -136 0
-137 -133 0
-137 136 0
138 -133 136 0
-138 133 0
-138 -136 0
139 137 138 0
-139 -137 0
-139 -138 0
140 -19 133 0
-140 19 0
-140 -133 0
141 85 133 0
-141 -85 0
-141 -133 0
142 -19 85 0
-142 19 0
-142 -85 0
143 142 141 0
-143 -142 0
-143 -141 0
144 -143 140 0
-144 143 0
-144 -140 0
145 -24 -96 0
-145 24 0
-145 96 0
146 24 96 0
-146 -24 0
-146 -96 0
147 145 146 0
-147 -145 0
-147 -146 0
148 -147 144 0
-148 147 0
-148 -144 0
149 147 -144 0
-149 -147 0
-149 144 0
150 148 149 0
-150 -148 0
-150 -149 0
151 -24 144 0
-151 24 0
-151 -144 0
152 144 96 0
-152 -144 0
-152 -96 0
153 -24 96 0
-153 24 0
-153 -96 0
154 152 153 0
-154 -152 0
-154 -153 0
155 -154 151 0
-155 154 0
-155 -151 0
156 -29 -90 0
-156 29 0
-156 90 0
157 29 90 0
-157 -29 0
-157 -90 0
158 156 157 0
-158 -156 0
-158 -157 0
159 -158 155 0
-159 158 0
-159 -155 0
160 158 -155 0
-160 -158 0
-160 155 0
161 160 159 0
-161 -160 0
-161 -159 0
162 -29 155 0
-162 29 0
-162 -155 0
163 90 155 0
-163 -90 0
-163 -155 0
164 -29 90 0
-164 29 0
-164 -90 0
165 163 164 0
-165 -163 0
-165 -164 0
166 -165 162 0
-166 165 0
-166 -162 0
-167 10 0
167 -10 0
-168 -99 0
168 99 0
-169 -106 0
169 106 0
-170 -117 0
170 117 0
-171 -128 0
171 128 0
-172 -139 0
172 139 0
-173 -150 0
173 150 0
-174 -161 0
174 161 0
-175 -166 0
175 166 0
167 0
-168 0
-169 0
-170 0
171 0
-172 0
-173 0
174 0
-175 0
